(set-info :smt-lib-version 2.6)
(set-logic QF_FPBV)
(set-info :source |Random FP created by PyMPF|)
(set-info :license |https://www.gnu.org/licenses/gpl-3.0.html|)
(set-info :category random)
(set-info :status unsat)
;; fp.from.sbv(BitVec 32)
(declare-const x (_ BitVec 32))
(assert (bvsle x #b01111010100010100011111100100101))
;; x should be 2055880485

(declare-const r Float64)
(assert (= r ((_ to_fp 11 53) RTZ x)))
(assert (not (fp.leq r (fp #b0 #b10000011101 #b1110101000101000111111001001010000000000000000000000))))
(check-sat)
(exit)
